nApps = 209
nRes = 9
nActs = 436
nNetworks = 6

assignmentToResources = [2,3,1,3,1,1,1,2,1,2,3,2,2,3,2,3,3,1,3,2,2,2,3,1,3,1,2,1,1,1,1,2,1,3,1,3,1,1,1,1,3,3,1,3,2,1,3,1,1,3,3,3,3,1,2,1,3,3,1,3,1,3,3,3,3,3,1,1,1,2,2,3,1,3,1,1,3,3,3,3,2,1,2,1,1,3,3,3,1,2,2,3,2,3,1,3,2,3,2,2,5,5,5,5,6,6,6,4,6,4,4,4,4,4,5,5,5,4,4,4,4,5,5,6,6,5,5,5,5,5,5,5,6,5,6,6,6,6,4,4,5,5,5,5,5,5,5,6,6,4,4,4,6,6,4,5,5,5,4,4,4,4,4,6,6,4,4,6,4,4,4,4,4,4,4,4,4,6,5,5,4,6,6,4,6,6,6,6,6,6,6,4,4,6,4,6,6,6,4,6,6,6,6,6,6,4,5,5,5,6,6,4,4,4,4,6,6,6,5,4,4,4,6,6,5,5,5,6,5,5,5,5,5,5,6,6,6,6,4,6,5,5,6,5,5,7,6,8,4,8,6,7,6,7,4,8,6,8,4,9,5,9,5,9,4,8,6,7,5,9,6,7,4,9,6,8,4,9,5,7,4,9,5,7,6,7,6,7,5,9,6,7,9,9,9,9,7,7,8,9,7,9,8,9,8,9,7,7,7,9,9,9,8,9,7,7,7,9,9,9,7,9,7,9,7,7,7,7,8,7,9,9,7,9,7,7,7,7,7,7,7,9,8,9,7,7,9,7,7,9,9,8,9,8,9,7,8,9,9,8,9,8,9,9,9,9,9,9,9,8,7,7,8,8,7,8,7,7,7,8,8,7,7,9,9,8,9,8,7,7,8,8,7,7,7,7,8,8,7,7,9,7,8,8,9,8,8,7,7,7,9,9,8,9,8,7,9,9,7,7,9,7,9,7,7,9,7,7,8,7,8,7,9,7,8,7];

processingTimes = [104,56,72,56,48,112,104,136,128,160,112,64,128,80,136,128,88,168,168,112,48,128,96,128,128,120,168,160,56,128,144,128,136,96,120,112,64,160,136,48,72,104,120,88,128,48,96,128,128,128,120,136,136,64,56,112,104,104,120,128,128,112,48,56,144,112,120,144,144,120,120,120,144,136,96,120,104,48,72,112,136,72,96,120,128,112,136,72,136,128,72,120,152,128,128,112,96,152,160,88,3,4,4,500,3,3,1000,4,4,3,3,5000,4,4,4,4,4,4,4,3,3,3,4,4,3,500,500,3,4,4,500,500,4,500,500,3,3,8,2000,5,500,3,3,4,3,3,8,4,4,2000,5,2000,6,3,4,500,3,4,4,3,4,3,4,3,5,2000,3,1000,3,4,4,4,4,4,4,1000,4,1000,4,5,4,4,4,4,4,4,11,8,4,3,3,3,4,3,3,1000,3,3,1000,1000,13,4,4,5,5,8,3,3,23,500,1000,3,3,3,3,4,500,13,3,1000,4,4,4,4,3,3,3,500,3,7,4,4,4,3,5,500,1000,500,4,4,3,3,3,4,4,4,4,4,13,13,3,3,4,4,4,4,5,5,3,3,500,500,5,5,3,3,8,8,3,3,13,13,13,13,4,4,4,4,4,4,3,3,500,500,4,4,3,3,4,4,5,5,3,4,4,500,3,3,1000,4,4,3,3,5000,4,4,4,4,4,4,4,3,3,3,4,4,3,500,500,3,4,4,500,500,4,500,500,3,3,8,2000,5,500,3,3,4,3,3,8,4,4,2000,5,2000,6,3,4,500,3,4,4,3,4,3,4,3,5,2000,3,1000,3,4,4,4,4,4,4,1000,4,1000,4,5,4,4,4,4,4,4,11,8,4,3,3,3,4,3,3,1000,3,3,1000,1000,13,4,4,5,5,8,3,3,23,500,1000,3,3,3,3,4,500,13,3,1000,4,4,4,4,3,3,3,500,3,7,4,4,4,3,5,500,1000,500,4,4,3,3,3,4];

periods = [10000,10000,20000,20000,100000,100000,10000,20000,100000,10000,10000,20000,20000,100000,10000,100000,10000,20000,20000,50000,10000,1000,20000,20000,2000,20000,20000,20000,2000,50000,20000,10000,10000,10000,20000,10000,10000,20000,20000,10000,20000,20000,100000,10000,10000,20000,10000,10000,20000,10000,100000,100000,10000,5000,100000,20000,100000,20000,10000,10000,10000,100000,20000,20000,10000,20000,10000,20000,100000,10000,100000,100000,50000,20000,10000,100000,100000,20000,100000,20000,20000,10000,20000,10000,100000,100000,20000,100000,10000,100000,10000,100000,100000,20000,10000,20000,20000,20000,1000,20000,10000,10000,10000,10000,10000,10000,10000,20000,20000,100000,100000,100000,10000,10000,20000,20000,20000,100000,100000,100000,100000,10000,10000,10000,10000,20000,20000,20000,20000,20000,20000,20000,100000,10000,100000,10000,10000,10000,20000,20000,50000,50000,50000,10000,10000,10000,1000,20000,20000,20000,20000,20000,2000,2000,20000,20000,20000,20000,20000,20000,20000,20000,20000,10000,10000,20000,20000,10000,10000,10000,20000,20000,20000,20000,20000,10000,100000,10000,10000,10000,20000,10000,10000,20000,10000,10000,100000,100000,10000,10000,10000,20000,20000,100000,10000,10000,10000,10000,10000,100000,20000,10000,10000,20000,20000,20000,10000,10000,100000,100000,20000,10000,10000,10000,100000,20000,100000,100000,20000,10000,10000,10000,100000,100000,100000,100000,10000,100000,100000,100000,100000,100000,100000,100000,20000,20000,20000,20000,10000,20000,20000,20000,20000,20000,20000,20000,20000,20000,10000,10000,10000,10000,10000,10000,10000,10000,10000,10000,10000,10000,100000,100000,20000,20000,20000,20000,20000,20000,20000,20000,20000,20000,20000,20000,10000,10000,10000,10000,10000,10000,10000,10000,20000,20000,100000,100000,100000,100000,100000,100000,20000,20000,10000,10000,10000,10000,10000,10000,10000,20000,20000,100000,100000,100000,10000,10000,20000,20000,20000,100000,100000,100000,100000,10000,10000,10000,10000,20000,20000,20000,20000,20000,20000,20000,100000,10000,100000,10000,10000,10000,20000,20000,50000,50000,50000,10000,10000,10000,1000,20000,20000,20000,20000,20000,2000,2000,20000,20000,20000,20000,20000,20000,20000,20000,20000,10000,10000,20000,20000,10000,10000,10000,20000,20000,20000,20000,20000,10000,100000,10000,10000,10000,20000,10000,10000,20000,10000,10000,100000,100000,10000,10000,10000,20000,20000,100000,10000,10000,10000,10000,10000,100000,20000,10000,10000,20000,20000,20000,10000,10000,100000,100000,20000,10000,10000,10000,100000,20000,100000,100000,20000,10000,10000,10000,100000,100000,100000,100000,10000,100000,100000,100000,100000,100000,100000,100000,20000,20000,20000,20000,10000,20000,20000,20000,20000,20000];

assignmentToClusters = [1,2,3,3,4,5,6,3,5,7,8,9,10,11,7,11,7,12,13,14,7,15,16,17,18,19,20,21,22,23,24,25,26,27,28,29,7,30,31,25,20,16,32,25,25,33,7,25,16,7,34,35,36,37,38,39,34,40,41,42,43,44,39,20,25,45,7,20,35,46,38,47,48,49,50,34,34,51,52,53,54,7,16,55,5,56,57,38,7,58,59,60,11,3,61,62,63,64,65,31,66,67,68,69,70,71,72,73,74,75,76,77,78,79,80,81,82,83,84,85,86,87,88,89,90,91,92,93,94,95,96,97,98,99,100,101,102,103,104,105,106,107,108,109,110,111,112,113,114,115,116,117,118,119,120,121,122,123,124,125,126,127,128,129,130,131,132,133,134,135,136,137,138,139,140,141,142,143,144,145,146,147,148,149,150,151,152,153,154,155,156,157,158,159,160,161,162,163,164,165,166,167,168,169,170,171,172,173,174,175,176,177,178,179,180,181,182,183,184,185,186,187,188,189,190,191,192,193,194,195,196,197,198,199,200,201,202,203,204,205,206,207,208,209,3,3,3,3,7,7,7,7,7,7,7,7,7,7,7,7,11,11,16,16,16,16,16,16,20,20,20,20,20,20,25,25,25,25,25,25,25,25,31,31,34,34,35,35,38,38,39,39,66,67,68,69,70,71,72,73,74,75,76,77,78,79,80,81,82,83,84,85,86,87,88,89,90,91,92,93,94,95,96,97,98,99,100,101,102,103,104,105,106,107,108,109,110,111,112,113,114,115,116,117,118,119,120,121,122,123,124,125,126,127,128,129,130,131,132,133,134,135,136,137,138,139,140,141,142,143,144,145,146,147,148,149,150,151,152,153,154,155,156,157,158,159,160,161,162,163,164,165,166,167,168,169,170,171,172,173,174,175,176,177,178,179,180,181,182,183,184,185,186,187,188,189,190,191,192,193,194,195,196,197,198,199,200,201,202,203,204,205,206,207,208,209];

precedenceAdjList = [[],[],[245],[93],[],[8],[],[247],[],[249],[],[],[],[261],[9,257],[13],[],[],[],[],[255],[],[263],[],[],[],[],[],[],[],[],[275],[],[],[],[],[81],[],[283],[47],[273],[],[],[281],[],[],[259],[279],[267],[],[56],[],[],[],[70],[291],[],[],[],[],[],[],[],[269],[277],[],[88],[271],[287],[],[],[],[],[],[],[285],[50],[],[],[],[],[],[265],[],[5],[],[],[289],[251,253],[],[],[],[],[],[],[],[],[],[],[],[],[],[],[],[],[],[],[],[],[],[],[],[],[],[],[],[],[],[],[],[],[],[],[],[],[],[],[],[],[],[],[],[],[],[],[],[],[],[],[],[],[],[],[],[],[],[],[],[],[],[],[],[],[],[],[],[],[],[],[],[],[],[],[],[],[],[],[],[],[],[],[],[],[],[],[],[],[],[],[],[],[],[],[],[],[],[],[],[],[],[],[],[],[],[],[],[],[],[],[],[],[],[],[],[],[],[],[],[],[],[],[],[],[],[],[],[],[],[],[],[],[],[],[],[],[],[],[],[],[],[],[],[],[],[],[],[],[],[],[],[],[],[],[],[7],[244],[3],[246],[88],[248],[16],[250],[49],[252],[66],[254],[46],[256],[36],[258],[92],[260],[82],[262],[48],[264],[41],[266],[26],[268],[63],[270],[67],[272],[64],[274],[39],[276],[44],[278],[47],[280],[99],[282],[76],[284],[51],[286],[54],[288],[62],[290],[100],[101],[102],[103],[104],[105],[106],[107],[108],[109],[110],[111],[112],[113],[114],[115],[116],[117],[118],[119],[120],[121],[122],[123],[124],[125],[126],[127],[128],[129],[130],[131],[132],[133],[134],[135],[136],[137],[138],[139],[140],[141],[142],[143],[144],[145],[146],[147],[148],[149],[150],[151],[152],[153],[154],[155],[156],[157],[158],[159],[160],[161],[162],[163],[164],[165],[166],[167],[168],[169],[170],[171],[172],[173],[174],[175],[176],[177],[178],[179],[180],[181],[182],[183],[184],[185],[186],[187],[188],[189],[190],[191],[192],[193],[194],[195],[196],[197],[198],[199],[200],[201],[202],[203],[204],[205],[206],[207],[208],[209],[210],[211],[212],[213],[214],[215],[216],[217],[218],[219],[220],[221],[222],[223],[224],[225],[226],[227],[228],[229],[230],[231],[232],[233],[234],[235],[236],[237],[238],[239],[240],[241],[242],[243]];